&bands
prefix = 'Si'
outdir = './tmp/'
filband = 'bandx.dat'
/
